# Objective value = 634
cmax 634
t_1_1 1.4499999999999952e+02
t_1_2 2.4499999999999920e+02
t_1_3 4.5499999999999545e+02
t_2_1 8.6999999999998522e+01
t_2_2 332.999999999993
t_2_3 3.9899999999999210e+02
t_3_1 0
t_3_2 87
t_3_3 2.3799999999999898e+02
t_4_1 0
t_4_2 65
t_4_3 2.4499999999999983e+02
t_5_1 2.0999999999999571e+02
t_5_2 3.8999999999999670e+02
t_5_3 4.5499999999999613e+02
t_6_1 6.4999999999998550e+01
t_6_2 3.6899999999999710e+02
t_6_3 5.1399999999999625e+02
t_7_1 0
t_7_2 2.4499999999999841e+02
t_7_3 3.6899999999999807e+02
t_8_1 0
t_8_2 245
t_8_3 469
a_1_1_0 0
a_1_1_1 0
a_1_1_2 1
a_1_2_3 0
a_1_2_1 0
a_1_2_6 1
a_1_3_3 1
a_1_3_4 0
a_1_3_6 0
a_2_1_0 1
a_2_1_2 0
a_2_2_2 0
a_2_2_1 1
a_2_3_4 0
a_2_3_5 0
a_2_3_6 1
a_3_1_0 1
a_3_1_1 0
a_3_2_6 1
a_3_2_2 0
a_3_2_3 0
a_3_3_3 0
a_3_3_4 1
a_3_3_5 0
a_4_1_0 0
a_4_1_1 1
a_4_2_2 0
a_4_2_4 1
a_4_3_3 1
a_4_3_5 0
a_5_1_1 1
a_5_1_2 0
a_5_1_0 0
a_5_2_6 0
a_5_2_3 1
a_5_2_4 0
a_5_3_4 0
a_5_3_5 0
a_5_3_1 1
a_6_1_1 1
a_6_1_2 0
a_6_1_3 0
a_6_2_3 0
a_6_2_2 1
a_6_2_4 0
a_6_3_4 1
a_6_3_5 0
a_6_3_6 0
a_7_1_2 1
a_7_1_1 0
a_7_2_2 1
a_7_2_4 0
a_7_3_4 1
a_7_3_5 0
a_7_3_6 0
a_8_1_3 1
a_8_1_2 0
a_8_2_5 1
a_8_2_4 0
a_8_3_4 0
a_8_3_5 1
a_8_3_6 0
B_1_1_1_1 0
B_1_1_1_2 0
B_1_1_1_3 0
B_1_1_2_1 0
B_1_1_2_2 0
B_1_1_2_3 0
B_1_1_3_1 0
B_1_1_3_2 0
B_1_1_3_3 0
B_1_1_4_1 1
B_1_1_4_2 0
B_1_1_4_3 0
B_1_1_5_1 0
B_1_1_5_2 0
B_1_1_5_3 0
B_1_1_6_1 0
B_1_1_6_2 1
B_1_1_6_3 0
B_1_1_7_1 0
B_1_1_7_2 1
B_1_1_7_3 0
B_1_1_8_1 0
B_1_1_8_2 0
B_1_1_8_3 0
B_1_2_1_1 0
B_1_2_1_2 0
B_1_2_1_3 0
B_1_2_2_1 0
B_1_2_2_2 0
B_1_2_2_3 1
B_1_2_3_1 0
B_1_2_3_2 0
B_1_2_3_3 0
B_1_2_4_1 0
B_1_2_4_2 0
B_1_2_4_3 0
B_1_2_5_1 0
B_1_2_5_2 0
B_1_2_5_3 0
B_1_2_6_1 0
B_1_2_6_2 0
B_1_2_6_3 1
B_1_2_7_1 0
B_1_2_7_2 0
B_1_2_7_3 1
B_1_2_8_1 0
B_1_2_8_2 0
B_1_2_8_3 1
B_1_3_1_1 0
B_1_3_1_2 0
B_1_3_1_3 0
B_1_3_2_1 0
B_1_3_2_2 0
B_1_3_2_3 0
B_1_3_3_1 0
B_1_3_3_2 0
B_1_3_3_3 0
B_1_3_4_1 0
B_1_3_4_2 0
B_1_3_4_3 0
B_1_3_5_1 0
B_1_3_5_2 0
B_1_3_5_3 0
B_1_3_6_1 0
B_1_3_6_2 0
B_1_3_6_3 1
B_1_3_7_1 0
B_1_3_7_2 0
B_1_3_7_3 1
B_1_3_8_1 0
B_1_3_8_2 1
B_1_3_8_3 1
B_2_1_1_1 0
B_2_1_1_2 0
B_2_1_1_3 0
B_2_1_2_1 0
B_2_1_2_2 0
B_2_1_2_3 0
B_2_1_3_1 0
B_2_1_3_2 0
B_2_1_3_3 0
B_2_1_4_1 0
B_2_1_4_2 0
B_2_1_4_3 0
B_2_1_5_1 1
B_2_1_5_2 0
B_2_1_5_3 0
B_2_1_6_1 0
B_2_1_6_2 0
B_2_1_6_3 0
B_2_1_7_1 0
B_2_1_7_2 0
B_2_1_7_3 0
B_2_1_8_1 1
B_2_1_8_2 0
B_2_1_8_3 0
B_2_2_1_1 0
B_2_2_1_2 0
B_2_2_1_3 0
B_2_2_2_1 0
B_2_2_2_2 0
B_2_2_2_3 0
B_2_2_3_1 0
B_2_2_3_2 0
B_2_2_3_3 0
B_2_2_4_1 0
B_2_2_4_2 0
B_2_2_4_3 0
B_2_2_5_1 0
B_2_2_5_2 0
B_2_2_5_3 1
B_2_2_6_1 0
B_2_2_6_2 0
B_2_2_6_3 0
B_2_2_7_1 0
B_2_2_7_2 0
B_2_2_7_3 0
B_2_2_8_1 0
B_2_2_8_2 0
B_2_2_8_3 0
B_2_3_1_1 0
B_2_3_1_2 0
B_2_3_1_3 0
B_2_3_2_1 0
B_2_3_2_2 0
B_2_3_2_3 0
B_2_3_3_1 0
B_2_3_3_2 0
B_2_3_3_3 0
B_2_3_4_1 0
B_2_3_4_2 0
B_2_3_4_3 0
B_2_3_5_1 0
B_2_3_5_2 0
B_2_3_5_3 0
B_2_3_6_1 0
B_2_3_6_2 0
B_2_3_6_3 0
B_2_3_7_1 0
B_2_3_7_2 0
B_2_3_7_3 1
B_2_3_8_1 0
B_2_3_8_2 0
B_2_3_8_3 0
B_3_1_1_1 0
B_3_1_1_2 0
B_3_1_1_3 0
B_3_1_2_1 0
B_3_1_2_2 0
B_3_1_2_3 0
B_3_1_3_1 0
B_3_1_3_2 0
B_3_1_3_3 0
B_3_1_4_1 1
B_3_1_4_2 0
B_3_1_4_3 0
B_3_1_5_1 1
B_3_1_5_2 0
B_3_1_5_3 1
B_3_1_6_1 0
B_3_1_6_2 0
B_3_1_6_3 0
B_3_1_7_1 0
B_3_1_7_2 0
B_3_1_7_3 0
B_3_1_8_1 0
B_3_1_8_2 0
B_3_1_8_3 0
B_3_2_1_1 0
B_3_2_1_2 0
B_3_2_1_3 0
B_3_2_2_1 0
B_3_2_2_2 0
B_3_2_2_3 0
B_3_2_3_1 0
B_3_2_3_2 0
B_3_2_3_3 0
B_3_2_4_1 0
B_3_2_4_2 0
B_3_2_4_3 0
B_3_2_5_1 0
B_3_2_5_2 0
B_3_2_5_3 0
B_3_2_6_1 0
B_3_2_6_2 0
B_3_2_6_3 1
B_3_2_7_1 0
B_3_2_7_2 0
B_3_2_7_3 1
B_3_2_8_1 0
B_3_2_8_2 0
B_3_2_8_3 1
B_3_3_1_1 0
B_3_3_1_2 0
B_3_3_1_3 0
B_3_3_2_1 0
B_3_3_2_2 0
B_3_3_2_3 0
B_3_3_3_1 0
B_3_3_3_2 0
B_3_3_3_3 0
B_3_3_4_1 0
B_3_3_4_2 0
B_3_3_4_3 0
B_3_3_5_1 0
B_3_3_5_2 0
B_3_3_5_3 0
B_3_3_6_1 0
B_3_3_6_2 1
B_3_3_6_3 1
B_3_3_7_1 0
B_3_3_7_2 0
B_3_3_7_3 1
B_3_3_8_1 0
B_3_3_8_2 0
B_3_3_8_3 1
B_4_1_1_1 0
B_4_1_1_2 0
B_4_1_1_3 0
B_4_1_2_1 0
B_4_1_2_2 0
B_4_1_2_3 0
B_4_1_3_1 0
B_4_1_3_2 0
B_4_1_3_3 0
B_4_1_4_1 0
B_4_1_4_2 0
B_4_1_4_3 0
B_4_1_5_1 1
B_4_1_5_2 0
B_4_1_5_3 1
B_4_1_6_1 1
B_4_1_6_2 0
B_4_1_6_3 0
B_4_1_7_1 0
B_4_1_7_2 0
B_4_1_7_3 0
B_4_1_8_1 0
B_4_1_8_2 0
B_4_1_8_3 0
B_4_2_1_1 0
B_4_2_1_2 0
B_4_2_1_3 0
B_4_2_2_1 0
B_4_2_2_2 0
B_4_2_2_3 0
B_4_2_3_1 0
B_4_2_3_2 0
B_4_2_3_3 0
B_4_2_4_1 0
B_4_2_4_2 0
B_4_2_4_3 0
B_4_2_5_1 0
B_4_2_5_2 0
B_4_2_5_3 0
B_4_2_6_1 0
B_4_2_6_2 0
B_4_2_6_3 1
B_4_2_7_1 0
B_4_2_7_2 0
B_4_2_7_3 1
B_4_2_8_1 0
B_4_2_8_2 1
B_4_2_8_3 1
B_4_3_1_1 0
B_4_3_1_2 0
B_4_3_1_3 0
B_4_3_2_1 0
B_4_3_2_2 0
B_4_3_2_3 0
B_4_3_3_1 0
B_4_3_3_2 0
B_4_3_3_3 0
B_4_3_4_1 0
B_4_3_4_2 0
B_4_3_4_3 0
B_4_3_5_1 0
B_4_3_5_2 1
B_4_3_5_3 0
B_4_3_6_1 0
B_4_3_6_2 0
B_4_3_6_3 1
B_4_3_7_1 0
B_4_3_7_2 0
B_4_3_7_3 0
B_4_3_8_1 0
B_4_3_8_2 0
B_4_3_8_3 0
B_5_1_1_1 0
B_5_1_1_2 0
B_5_1_1_3 0
B_5_1_2_1 0
B_5_1_2_2 0
B_5_1_2_3 0
B_5_1_3_1 0
B_5_1_3_2 0
B_5_1_3_3 0
B_5_1_4_1 0
B_5_1_4_2 0
B_5_1_4_3 0
B_5_1_5_1 0
B_5_1_5_2 0
B_5_1_5_3 0
B_5_1_6_1 0
B_5_1_6_2 0
B_5_1_6_3 0
B_5_1_7_1 0
B_5_1_7_2 0
B_5_1_7_3 0
B_5_1_8_1 0
B_5_1_8_2 0
B_5_1_8_3 0
B_5_2_1_1 0
B_5_2_1_2 0
B_5_2_1_3 0
B_5_2_2_1 0
B_5_2_2_2 0
B_5_2_2_3 0
B_5_2_3_1 0
B_5_2_3_2 0
B_5_2_3_3 0
B_5_2_4_1 0
B_5_2_4_2 0
B_5_2_4_3 0
B_5_2_5_1 0
B_5_2_5_2 0
B_5_2_5_3 0
B_5_2_6_1 0
B_5_2_6_2 0
B_5_2_6_3 0
B_5_2_7_1 0
B_5_2_7_2 0
B_5_2_7_3 0
B_5_2_8_1 0
B_5_2_8_2 1
B_5_2_8_3 0
B_5_3_1_1 0
B_5_3_1_2 0
B_5_3_1_3 0
B_5_3_2_1 0
B_5_3_2_2 0
B_5_3_2_3 0
B_5_3_3_1 0
B_5_3_3_2 0
B_5_3_3_3 0
B_5_3_4_1 0
B_5_3_4_2 0
B_5_3_4_3 0
B_5_3_5_1 0
B_5_3_5_2 0
B_5_3_5_3 0
B_5_3_6_1 0
B_5_3_6_2 0
B_5_3_6_3 0
B_5_3_7_1 0
B_5_3_7_2 0
B_5_3_7_3 1
B_5_3_8_1 0
B_5_3_8_2 1
B_5_3_8_3 1
B_6_1_1_1 0
B_6_1_1_2 0
B_6_1_1_3 0
B_6_1_2_1 0
B_6_1_2_2 0
B_6_1_2_3 0
B_6_1_3_1 0
B_6_1_3_2 0
B_6_1_3_3 0
B_6_1_4_1 0
B_6_1_4_2 0
B_6_1_4_3 0
B_6_1_5_1 0
B_6_1_5_2 0
B_6_1_5_3 0
B_6_1_6_1 0
B_6_1_6_2 0
B_6_1_6_3 0
B_6_1_7_1 1
B_6_1_7_2 0
B_6_1_7_3 0
B_6_1_8_1 0
B_6_1_8_2 0
B_6_1_8_3 0
B_6_2_1_1 0
B_6_2_1_2 0
B_6_2_1_3 0
B_6_2_2_1 0
B_6_2_2_2 0
B_6_2_2_3 0
B_6_2_3_1 0
B_6_2_3_2 0
B_6_2_3_3 0
B_6_2_4_1 0
B_6_2_4_2 0
B_6_2_4_3 0
B_6_2_5_1 0
B_6_2_5_2 0
B_6_2_5_3 0
B_6_2_6_1 0
B_6_2_6_2 0
B_6_2_6_3 0
B_6_2_7_1 0
B_6_2_7_2 0
B_6_2_7_3 1
B_6_2_8_1 0
B_6_2_8_2 1
B_6_2_8_3 1
B_6_3_1_1 0
B_6_3_1_2 0
B_6_3_1_3 0
B_6_3_2_1 0
B_6_3_2_2 0
B_6_3_2_3 0
B_6_3_3_1 0
B_6_3_3_2 0
B_6_3_3_3 0
B_6_3_4_1 0
B_6_3_4_2 0
B_6_3_4_3 0
B_6_3_5_1 0
B_6_3_5_2 0
B_6_3_5_3 0
B_6_3_6_1 0
B_6_3_6_2 0
B_6_3_6_3 0
B_6_3_7_1 0
B_6_3_7_2 0
B_6_3_7_3 0
B_6_3_8_1 0
B_6_3_8_2 0
B_6_3_8_3 1
B_7_1_1_1 0
B_7_1_1_2 0
B_7_1_1_3 0
B_7_1_2_1 0
B_7_1_2_2 0
B_7_1_2_3 0
B_7_1_3_1 0
B_7_1_3_2 0
B_7_1_3_3 0
B_7_1_4_1 0
B_7_1_4_2 0
B_7_1_4_3 0
B_7_1_5_1 0
B_7_1_5_2 0
B_7_1_5_3 0
B_7_1_6_1 0
B_7_1_6_2 0
B_7_1_6_3 0
B_7_1_7_1 0
B_7_1_7_2 0
B_7_1_7_3 0
B_7_1_8_1 0
B_7_1_8_2 0
B_7_1_8_3 0
B_7_2_1_1 0
B_7_2_1_2 0
B_7_2_1_3 0
B_7_2_2_1 0
B_7_2_2_2 0
B_7_2_2_3 0
B_7_2_3_1 0
B_7_2_3_2 0
B_7_2_3_3 0
B_7_2_4_1 0
B_7_2_4_2 0
B_7_2_4_3 0
B_7_2_5_1 0
B_7_2_5_2 0
B_7_2_5_3 0
B_7_2_6_1 0
B_7_2_6_2 0
B_7_2_6_3 0
B_7_2_7_1 0
B_7_2_7_2 0
B_7_2_7_3 0
B_7_2_8_1 0
B_7_2_8_2 1
B_7_2_8_3 0
B_7_3_1_1 0
B_7_3_1_2 0
B_7_3_1_3 0
B_7_3_2_1 0
B_7_3_2_2 0
B_7_3_2_3 0
B_7_3_3_1 0
B_7_3_3_2 0
B_7_3_3_3 0
B_7_3_4_1 0
B_7_3_4_2 0
B_7_3_4_3 0
B_7_3_5_1 0
B_7_3_5_2 0
B_7_3_5_3 0
B_7_3_6_1 0
B_7_3_6_2 0
B_7_3_6_3 0
B_7_3_7_1 0
B_7_3_7_2 0
B_7_3_7_3 0
B_7_3_8_1 0
B_7_3_8_2 0
B_7_3_8_3 0
B_8_1_1_1 0
B_8_1_1_2 0
B_8_1_1_3 0
B_8_1_2_1 0
B_8_1_2_2 0
B_8_1_2_3 0
B_8_1_3_1 0
B_8_1_3_2 0
B_8_1_3_3 0
B_8_1_4_1 0
B_8_1_4_2 0
B_8_1_4_3 0
B_8_1_5_1 0
B_8_1_5_2 0
B_8_1_5_3 0
B_8_1_6_1 0
B_8_1_6_2 0
B_8_1_6_3 0
B_8_1_7_1 0
B_8_1_7_2 0
B_8_1_7_3 0
B_8_1_8_1 0
B_8_1_8_2 0
B_8_1_8_3 0
B_8_2_1_1 0
B_8_2_1_2 0
B_8_2_1_3 0
B_8_2_2_1 0
B_8_2_2_2 0
B_8_2_2_3 0
B_8_2_3_1 0
B_8_2_3_2 0
B_8_2_3_3 0
B_8_2_4_1 0
B_8_2_4_2 0
B_8_2_4_3 0
B_8_2_5_1 0
B_8_2_5_2 0
B_8_2_5_3 0
B_8_2_6_1 0
B_8_2_6_2 0
B_8_2_6_3 0
B_8_2_7_1 0
B_8_2_7_2 0
B_8_2_7_3 0
B_8_2_8_1 0
B_8_2_8_2 0
B_8_2_8_3 0
B_8_3_1_1 0
B_8_3_1_2 0
B_8_3_1_3 0
B_8_3_2_1 0
B_8_3_2_2 0
B_8_3_2_3 0
B_8_3_3_1 0
B_8_3_3_2 0
B_8_3_3_3 0
B_8_3_4_1 0
B_8_3_4_2 0
B_8_3_4_3 0
B_8_3_5_1 0
B_8_3_5_2 0
B_8_3_5_3 0
B_8_3_6_1 0
B_8_3_6_2 0
B_8_3_6_3 0
B_8_3_7_1 0
B_8_3_7_2 0
B_8_3_7_3 0
B_8_3_8_1 0
B_8_3_8_2 0
B_8_3_8_3 0
